Route #1: 12 97 52 72 51 77
Route #2: 81
Route #3: 34 56 40 43 26 44
Route #4: 37 67 47 24
Route #5: 53
Route #6: 13
Route #7: 73 79 10 3
Route #8: 59
Route #9: 22 8 85 89 41 6 100 58 42
Route #10: 25 76 70 95 45 14 63
Route #11: 94 64 27
Route #12: 90
Route #13: 17 98 57 86
Route #14: 36
Route #15: 11 29 54 84 30 4 78 88 28 39
Route #16: 65
Route #17: 49 18 60 92 9 32 16
Route #18: 66 87 96 62
Route #19: 19
Route #20: 82
Route #21: 20
Route #22: 1 55
Route #23: 5 99
Route #24: 91
Route #25: 69 31 33 74 75 21 48 23 35 2
Route #26: 46 68
Route #27: 50
Route #28: 71 15 61
Route #29: 83
Route #30: 38 80
Route #31: 93 7
Cost 20120
